c Na 1
c Nb 2
c Nc 3
c Céa 4
c Céb 5
c Céc 6
c Ma 7
c Mb 8
c Mc 9
c Coa 10
c Cob 11
c Coc 12
c (a -> b) = (non a ou b)
c
p cnf 12 21
-1 4 0
-2 5 0
-3 6 0
-4 7 0
-5 8 0
-6 9 0
-1 10 0
-2 11 0
-3 12 0
-4 1 -10 0
-5 2 -11 0
-6 3 -12 0
-7 4 10 0
-8 5 11 0
-9 6 12 0 
-7 -1 10 0
-8 -2 11 0
-9 -3 12 0
1 0
5 0
9 0